20221024_PCST_ILP/Steiner1_dir_FC3_PtoC1_evid0.7_maxSt2_50_55.sol
# Objective value = -5.7489826876084855e+00
x_Rtn1_Vps54 1
x_Vps54_Vps51 0
x_Vps51_Vps53 0
x_Vps54_Vps52 0
x_Vps52_Vps53 0
x_Vps54_Vps53 1
x_Zrc1_Cot1 1
x_Cot1_Fmp42 1
y_Rtn1 1
y_Vps54 1
y_Vps51 0
y_Vps52 0
y_Zrc1 1
y_Cot1 1
y_Vps53 1
y_Fmp42 1
